param n := 2;

param m := 2;

param K := 50;

param a :=
1 	 0.326645
2 	 0.527058
;
 param A :=
[1, *, *]:  1	2	:=
1	0.771884	0.817070	
2	-0.285460	0.246720	

[2, *, *]:  1	2	:=
1	-0.968358	0.381794	
2	0.858874	0.994646	
;